0 29 107 116 152 201 212 274 330 374 
29 116 206 395 406 475 503 549 595 667 
503 594 679 718 792 882 892 904 993 1038 
594 792 887 1071 1170 1179 1231 1316 1414 1436 
887 958 964 1479 1540 1566 1635 1656 1705 1777 
901 986 1540 1592 1687 1777 1849 1896 1961 1967 
988 1896 1933 1994 2007 2039 2060 2092 2181 2211 
2007 2038 2124 2170 2266 2298 2386 2405 2453 2489 
2124 2200 2568 2644 2695 2780 2791 2831 2920 2946 
2269 2354 2780 2841 3020 3084 3160 3207 3259 3349 
